20
 N1C1W4_A 
 100 50 0 
99
95
93
92
91
89
89
88
88
85
84
84
84
80
80
79
77
76
72
69
65
64
64
63
63
60
56
56
53
53
52
51
50
50
49
49
47
44
41
41
40
40
40
35
35
34
32
31
31
30
 N1C1W4_B 
 100 50 0 
100
100
98
97
97
94
92
92
91
85
84
84
83
82
82
80
78
78
78
78
75
74
73
72
71
70
70
68
66
65
65
54
50
50
50
49
49
49
47
44
44
42
42
41
41
41
40
36
36
30
 N1C1W4_C 
 100 50 0 
94
92
89
88
88
87
86
84
82
82
81
79
77
77
77
76
73
72
70
69
68
68
65
63
63
61
59
58
57
55
54
52
52
52
51
48
46
43
40
38
37
37
36
35
35
35
34
34
34
33
 N1C1W4_D 
 100 50 0 
100
97
95
95
95
95
94
93
93
91
90
89
87
83
82
79
79
78
77
77
74
71
69
68
68
65
65
64
61
58
55
55
54
53
53
51
51
49
46
44
42
41
39
38
37
37
37
35
33
31
 N1C1W4_E 
 100 50 0 
100
99
94
92
92
92
89
88
85
83
83
80
79
79
79
79
77
74
74
73
71
70
69
68
65
62
62
62
61
61
58
56
56
55
55
55
48
47
46
46
44
43
43
43
40
40
36
35
32
30
 N1C1W4_F 
 100 50 0 
98
98
93
93
92
91
89
86
85
84
80
80
79
78
76
70
68
67
66
62
60
59
59
58
58
53
52
52
50
50
49
48
48
48
47
45
43
41
41
40
40
40
35
33
32
31
31
30
30
30
 N1C1W4_G 
 100 50 0 
100
100
100
99
97
95
95
95
93
93
91
90
87
87
86
85
85
84
84
84
82
80
77
76
72
70
67
66
65
64
59
56
55
52
48
46
45
44
41
38
37
35
35
34
34
33
33
32
32
31
 N1C1W4_H 
 100 50 0 
100
100
99
98
98
97
96
92
91
91
91
87
86
85
83
83
81
79
78
78
75
75
75
74
73
73
70
66
66
65
64
64
63
62
61
60
59
56
55
54
46
45
44
41
37
35
34
32
31
30
 N1C1W4_I 
 100 50 0 
95
92
91
91
90
88
87
87
86
86
85
81
79
76
76
76
72
72
69
65
63
63
63
63
61
61
59
59
58
56
54
54
52
51
50
47
47
45
45
45
43
40
40
36
35
35
34
32
32
31
 N1C1W4_J 
 100 50 0 
99
98
93
93
92
90
88
87
87
83
83
81
78
77
77
77
76
75
73
73
71
68
66
64
63
63
63
62
60
59
58
54
53
52
52
51
49
47
47
42
42
41
40
40
40
39
35
32
32
31
 N1C1W4_K 
 100 50 0 
100
98
95
94
94
94
93
92
87
85
85
84
83
82
81
78
78
75
73
72
71
71
70
70
68
67
67
66
65
64
60
59
58
57
56
56
56
55
55
54
51
49
46
45
43
43
43
37
36
35
 N1C1W4_L 
 100 50 0 
100
99
98
98
97
96
95
91
91
90
88
88
87
86
81
80
79
76
75
67
66
65
65
64
60
59
59
58
57
57
55
53
53
50
49
49
49
46
44
43
42
38
37
37
36
35
34
34
31
30
 N1C1W4_M 
 100 50 0 
100
99
99
94
93
92
91
89
88
88
87
80
79
77
75
74
73
71
71
71
69
66
64
64
64
63
63
63
62
60
60
59
59
59
55
55
55
53
51
49
49
48
46
46
45
42
42
34
33
31
 N1C1W4_N 
 100 50 0 
99
97
97
96
96
95
94
93
92
90
86
85
85
84
82
82
82
80
79
75
73
72
72
71
70
69
69
68
68
66
65
63
61
60
57
55
53
49
48
47
44
41
41
39
36
34
32
31
31
31
 N1C1W4_O 
 100 50 0 
100
90
89
89
89
87
84
81
80
77
77
77
74
71
71
71
67
66
65
63
62
61
60
59
59
57
56
56
54
54
51
51
49
48
48
47
47
46
40
39
37
36
36
35
34
34
33
32
31
30
 N1C1W4_P 
 100 50 0 
99
98
95
95
93
93
90
88
87
87
85
83
82
80
79
79
79
77
74
74
73
73
72
71
70
66
63
61
61
61
60
60
59
57
55
54
51
48
45
43
42
39
39
37
37
36
36
35
32
32
 N1C1W4_Q 
 100 50 0 
95
94
92
91
91
91
90
89
89
84
84
82
79
74
74
74
70
69
68
67
63
62
59
59
57
56
56
55
53
52
51
50
50
49
48
48
47
45
43
42
41
41
41
40
38
35
35
32
31
30
 N1C1W4_R 
 100 50 0 
100
99
98
97
95
94
93
93
93
92
92
92
92
85
85
83
81
79
77
76
75
73
71
70
70
69
66
63
60
60
59
59
58
58
57
49
48
47
45
42
41
41
40
38
38
36
36
35
34
30
 N1C1W4_S 
 100 50 0 
99
99
98
97
97
94
94
93
91
90
87
87
86
85
85
81
80
78
78
77
76
72
66
66
64
59
58
57
57
53
52
50
50
50
48
48
47
46
43
40
39
37
37
36
36
35
33
32
30
30
 N1C1W4_T 
 100 50 0 
98
96
94
87
86
85
83
81
80
79
77
77
76
75
72
70
69
69
69
68
68
68
68
67
67
66
65
65
63
62
60
60
60
59
58
56
53
53
52
52
50
50
49
45
45
44
39
36
32
30
